c uprop, v00.0, 
c reading from data/prog73.c.cnf
c done reading: 0
p cnf 145 674
-67 -72 0
67 72 0
-57 -63 0
57 63 0
-53 -55 0
53 55 0
-51 -60 0
51 60 0
-48 -69 0
48 69 0
47 -72 0
-47 72 0
-63 66 0
63 -66 0
-46 63 -66 0
-46 -66 0
46 -63 66 0
46 66 0
-55 -72 76 0
-55 -66 76 0
-66 -72 76 0
55 72 -76 0
55 66 -76 0
66 72 -76 0
55 -76 -77 0
72 -76 -77 0
66 -76 -77 0
-55 76 77 0
-72 76 77 0
-66 76 77 0
-55 -66 -72 77 0
55 66 72 -77 0
-51 -63 79 0
-51 -76 79 0
-63 -76 79 0
51 63 -79 0
51 76 -79 0
63 76 -79 0
51 -79 -80 0
63 -79 -80 0
76 -79 -80 0
-51 79 80 0
-63 79 80 0
-76 79 80 0
-51 -63 -76 80 0
51 63 76 -80 0
-55 -69 81 0
-69 -79 81 0
-55 -79 81 0
55 69 -81 0
69 79 -81 0
55 79 -81 0
69 -81 -82 0
55 -81 -82 0
79 -81 -82 0
-69 81 82 0
-55 81 82 0
-79 81 82 0
-55 -69 -79 82 0
55 69 79 -82 0
51 -83 0
81 -83 0
-51 -81 83 0
-51 -81 -84 0
51 81 -84 0
-51 81 84 0
51 -81 84 0
69 -85 0
83 -85 0
-69 -83 85 0
-69 -74 -83 0
69 -74 83 0
-69 74 83 0
69 74 -83 0
47 -62 0
-47 62 0
-46 50 0
46 -50 0
71 -77 0
-71 77 0
-71 77 -86 0
-71 -86 0
71 -77 86 0
71 86 0
59 -72 -80 0
59 -71 -80 0
59 -71 -72 0
-59 72 80 0
-59 71 80 0
-59 71 72 0
-59 80 -87 0
-59 72 -87 0
-59 71 -87 0
59 -80 87 0
59 -72 87 0
59 -71 87 0
-71 -72 -80 87 0
71 72 80 -87 0
45 -63 -82 0
45 -59 -82 0
45 -59 -63 0
-45 63 82 0
-45 59 82 0
-45 59 63 0
-44 -45 82 0
-44 -45 63 0
-44 -45 59 0
44 45 -82 0
44 45 -63 0
44 45 -59 0
44 -59 -63 -82 0
-44 59 63 82 0
43 -55 -84 0
43 -45 -84 0
43 -45 -55 0
-43 55 84 0
-43 45 84 0
-43 45 55 0
-42 -43 84 0
-42 -43 55 0
-42 -43 45 0
42 43 -84 0
42 43 -55 0
42 43 -45 0
42 -45 -55 -84 0
-42 45 55 84 0
41 -51 -74 0
41 -43 -74 0
41 -43 -51 0
-41 51 74 0
-41 43 74 0
-41 43 51 0
-40 -41 74 0
-40 -41 51 0
-40 -41 43 0
40 41 -74 0
40 41 -51 0
40 41 -43 0
40 -43 -51 -74 0
-40 43 51 74 0
39 -69 -85 0
39 -41 -85 0
39 -41 -69 0
-39 69 85 0
-39 41 85 0
-39 41 69 0
-38 -39 85 0
-38 -39 69 0
-38 -39 41 0
38 39 -85 0
38 39 -69 0
38 39 -41 0
38 -41 -69 -85 0
-38 41 69 85 0
-37 50 0
37 -50 0
36 -86 0
-36 86 0
35 -87 0
-35 87 0
-34 -35 87 0
-34 -35 0
34 35 -87 0
34 35 0
33 -44 -72 0
33 -35 -44 0
33 -35 -72 0
-33 44 72 0
-33 35 44 0
-33 35 72 0
-32 -33 44 0
-32 -33 72 0
-32 -33 35 0
32 33 -44 0
32 33 -72 0
32 33 -35 0
32 -35 -44 -72 0
-32 35 44 72 0
31 -42 -63 0
31 -33 -42 0
31 -33 -63 0
-31 42 63 0
-31 33 42 0
-31 33 63 0
-30 -31 42 0
-30 -31 63 0
-30 -31 33 0
30 31 -42 0
30 31 -63 0
30 31 -33 0
30 -33 -42 -63 0
-30 33 42 63 0
29 -40 -55 0
29 -31 -40 0
29 -31 -55 0
-29 40 55 0
-29 31 40 0
-29 31 55 0
-28 -29 40 0
-28 -29 55 0
-28 -29 31 0
28 29 -40 0
28 29 -55 0
28 29 -31 0
28 -31 -40 -55 0
-28 31 40 55 0
27 -38 -51 0
27 -29 -38 0
27 -29 -51 0
-27 38 51 0
-27 29 38 0
-27 29 51 0
-26 -27 38 0
-26 -27 51 0
-26 -27 29 0
26 27 -38 0
26 27 -51 0
26 27 -29 0
26 -29 -38 -51 0
-26 29 38 51 0
25 -39 -69 0
25 -27 -39 0
25 -27 -69 0
-25 39 69 0
-25 27 39 0
-25 27 69 0
-24 -25 39 0
-24 -25 69 0
-24 -25 27 0
24 25 -39 0
24 25 -69 0
24 25 -27 0
24 -27 -39 -69 0
-24 27 39 69 0
-23 -62 0
23 62 0
-22 -37 0
22 37 0
-21 -36 0
21 36 0
-20 -34 0
20 34 0
-19 -32 0
19 32 0
-30 -65 0
30 65 0
-28 -75 0
28 75 0
-26 -78 0
26 78 0
-24 -88 0
24 88 0
-25 -89 0
25 89 0
-90 -92 0
-92 -93 0
90 92 93 0
90 93 -95 0
-90 -93 -95 0
-90 93 95 0
90 -93 95 0
92 -96 0
-96 -97 0
-92 96 97 0
-92 97 -99 0
92 -97 -99 0
92 97 99 0
-92 -97 99 0
96 -100 0
-100 -101 0
-96 100 101 0
-96 101 -103 0
96 -101 -103 0
96 101 103 0
-96 -101 103 0
100 -104 0
-104 -105 0
-100 104 105 0
-100 105 -107 0
100 -105 -107 0
100 105 107 0
-100 -105 107 0
104 -108 0
-108 -109 0
-104 108 109 0
-104 109 -111 0
104 -109 -111 0
104 109 111 0
-104 -109 111 0
108 -112 0
-112 -113 0
-108 112 113 0
-108 113 -115 0
108 -113 -115 0
108 113 115 0
-108 -113 115 0
-73 112 0
-73 -116 0
73 -112 116 0
-64 -112 116 0
-64 112 -116 0
64 112 116 0
64 -112 -116 0
-56 93 0
-56 90 0
56 -90 -93 0
-52 -90 -93 0
-52 90 93 0
52 90 -93 0
52 -90 93 0
70 -93 -97 0
-56 70 -97 0
-56 70 -93 0
-70 93 97 0
56 -70 97 0
56 -70 93 0
-70 -91 97 0
-70 -91 93 0
56 -70 -91 0
70 91 -97 0
70 91 -93 0
-56 70 91 0
-56 91 -93 -97 0
56 -91 93 97 0
94 -97 -101 0
-70 94 -101 0
-70 94 -97 0
-94 97 101 0
70 -94 101 0
70 -94 97 0
-94 -98 101 0
-94 97 -98 0
70 -94 -98 0
94 98 -101 0
94 -97 98 0
-70 94 98 0
-70 -97 98 -101 0
70 97 -98 101 0
-101 102 -105 0
-94 102 -105 0
-94 -101 102 0
101 -102 105 0
94 -102 105 0
94 101 -102 0
-102 105 -106 0
101 -102 -106 0
94 -102 -106 0
102 -105 106 0
-101 102 106 0
-94 102 106 0
-94 -101 -105 106 0
94 101 105 -106 0
-105 -109 110 0
-102 -109 110 0
-102 -105 110 0
105 109 -110 0
102 109 -110 0
102 105 -110 0
109 -110 -114 0
105 -110 -114 0
102 -110 -114 0
-109 110 114 0
-105 110 114 0
-102 110 114 0
-102 -105 -109 114 0
102 105 109 -114 0
-109 -113 117 0
-110 -113 117 0
-109 -110 117 0
109 113 -117 0
110 113 -117 0
109 110 -117 0
113 -117 -118 0
109 -117 -118 0
110 -117 -118 0
-113 117 118 0
-109 117 118 0
-110 117 118 0
-109 -110 -113 118 0
109 110 113 -118 0
-113 -116 119 0
-116 -117 119 0
-113 -117 119 0
113 116 -119 0
116 117 -119 0
113 117 -119 0
116 -119 -120 0
113 -119 -120 0
117 -119 -120 0
-116 119 120 0
-113 119 120 0
-117 119 120 0
-113 -116 -117 120 0
113 116 117 -120 0
116 -121 0
119 -121 0
-116 -119 121 0
-116 -119 -122 0
116 119 -122 0
-116 119 122 0
116 -119 122 0
91 -123 0
90 -123 0
-90 -91 123 0
-90 -91 -124 0
90 91 -124 0
90 -91 124 0
-90 91 124 0
-93 -98 125 0
-98 -123 125 0
-93 -123 125 0
93 98 -125 0
98 123 -125 0
93 123 -125 0
98 -125 -126 0
93 -125 -126 0
123 -125 -126 0
-98 125 126 0
-93 125 126 0
-123 125 126 0
-93 -98 -123 126 0
93 98 123 -126 0
-97 -106 127 0
-106 -125 127 0
-97 -125 127 0
97 106 -127 0
106 125 -127 0
97 125 -127 0
106 -127 -128 0
97 -127 -128 0
125 -127 -128 0
-106 127 128 0
-97 127 128 0
-125 127 128 0
-97 -106 -125 128 0
97 106 125 -128 0
-101 -114 129 0
-114 -127 129 0
-101 -127 129 0
101 114 -129 0
114 127 -129 0
101 127 -129 0
114 -129 -130 0
101 -129 -130 0
127 -129 -130 0
-114 129 130 0
-101 129 130 0
-127 129 130 0
-101 -114 -127 130 0
101 114 127 -130 0
-105 -118 131 0
-118 -129 131 0
-105 -129 131 0
105 118 -131 0
118 129 -131 0
105 129 -131 0
118 -131 -132 0
105 -131 -132 0
129 -131 -132 0
-118 131 132 0
-105 131 132 0
-129 131 132 0
-105 -118 -129 132 0
105 118 129 -132 0
-109 -120 133 0
-120 -131 133 0
-109 -131 133 0
109 120 -133 0
120 131 -133 0
109 131 -133 0
120 -133 -134 0
109 -133 -134 0
131 -133 -134 0
-120 133 134 0
-109 133 134 0
-131 133 134 0
-109 -120 -131 134 0
109 120 131 -134 0
-113 -122 135 0
-122 -133 135 0
-113 -133 135 0
113 122 -135 0
122 133 -135 0
113 133 -135 0
122 -135 -136 0
113 -135 -136 0
133 -135 -136 0
-122 135 136 0
-113 135 136 0
-133 135 136 0
-113 -122 -133 136 0
113 122 133 -136 0
-116 -121 137 0
-121 -135 137 0
-116 -135 137 0
116 121 -137 0
121 135 -137 0
116 135 -137 0
121 -137 -138 0
116 -137 -138 0
135 -137 -138 0
-121 137 138 0
-116 137 138 0
-135 137 138 0
-116 -121 -135 138 0
116 121 135 -138 0
-68 -90 0
-52 -68 0
52 68 90 0
52 90 -139 0
-52 -90 -139 0
52 -90 139 0
-52 90 139 0
-58 68 0
-58 -124 0
58 -68 124 0
-68 124 -140 0
68 -124 -140 0
68 124 140 0
-68 -124 140 0
-54 58 0
-54 -126 0
54 -58 126 0
-58 126 -141 0
58 -126 -141 0
58 126 141 0
-58 -126 141 0
54 -61 0
-61 -128 0
-54 61 128 0
-54 128 -142 0
54 -128 -142 0
54 128 142 0
-54 -128 142 0
-49 61 0
-49 -130 0
49 -61 130 0
-61 130 -143 0
61 -130 -143 0
61 130 143 0
-61 -130 143 0
49 -144 0
-132 -144 0
-49 132 144 0
-49 132 -145 0
49 -132 -145 0
49 132 145 0
-49 -132 145 0
-18 144 0
-18 -134 0
18 134 -144 0
-17 134 -144 0
-17 -134 144 0
17 134 144 0
17 -134 -144 0
-16 18 0
-16 -136 0
16 -18 136 0
-15 -18 136 0
-15 18 -136 0
15 18 136 0
15 -18 -136 0
-14 16 0
-14 -138 0
14 -16 138 0
-13 -16 138 0
-13 16 -138 0
13 16 138 0
13 -16 -138 0
-12 14 0
-12 -137 0
12 -14 137 0
-11 -14 137 0
-11 14 -137 0
11 14 137 0
11 -14 -137 0
-10 62 0
-10 90 0
10 -62 -90 0
-62 90 0
62 -90 0
9 -37 -52 0
9 -10 -37 0
9 -10 -52 0
-9 37 52 0
-9 10 37 0
-9 10 52 0
-9 37 0
-9 52 0
-9 10 0
10 37 52 0
8 -36 -124 0
8 -9 -36 0
8 -9 -124 0
-8 36 124 0
-8 9 36 0
-8 9 124 0
-8 36 0
-8 124 0
-8 9 0
9 36 124 0
7 -34 -126 0
7 -8 -34 0
7 -8 -126 0
-7 34 126 0
-7 8 34 0
-7 8 126 0
7 -34 0
7 -126 0
7 -8 0
-8 -34 -126 0
6 -32 -128 0
6 -7 -32 0
6 -7 -128 0
-6 32 128 0
-6 7 32 0
-6 7 128 0
-6 32 0
-6 128 0
-6 7 0
7 32 128 0
5 -30 -130 0
5 -6 -30 0
5 -6 -130 0
-5 30 130 0
-5 6 30 0
-5 6 130 0
5 -30 0
5 -130 0
5 -6 0
-6 -30 -130 0
4 -28 -132 0
4 -5 -28 0
4 -5 -132 0
-4 28 132 0
-4 5 28 0
-4 5 132 0
4 -28 0
4 -132 0
4 -5 0
-5 -28 -132 0
3 -26 -134 0
3 -4 -26 0
3 -4 -134 0
-3 26 134 0
-3 4 26 0
-3 4 134 0
3 -26 0
3 -134 0
3 -4 0
-4 -26 -134 0
2 -24 -136 0
2 -3 -24 0
2 -3 -136 0
-2 24 136 0
-2 3 24 0
-2 3 136 0
2 -24 0
2 -136 0
2 -3 0
-3 -24 -136 0
1 -25 -138 0
1 -2 -25 0
1 -2 -138 0
-1 25 138 0
-1 2 25 0
-1 2 138 0
1 -25 0
1 -138 0
1 -2 0
-2 -25 -138 0
-1 -137 0
1 -137 0
-1 137 0
